unsat
(:max-memory         18.11
 :memory             17.94
 :nlsat-conflicts    1
 :nlsat-propagations 6
 :nlsat-stages       1
 :num-allocs         8286
 :rlimit-count       4237
 :time               0.00
 :total-time         0.01)
